(set-info :source  loris-7.ddns.comp.nus.edu.sg/~project/hip/) 
;Variables declarations
(declare-fun Anon_3397 () Int)
(declare-fun v_int_175_1370_primed () Int)
(declare-fun n_3393 () Int)
(declare-fun xleft_primed () Int)
(declare-fun m_3392 () Int)
(declare-fun flted_160_3396 () Int)
(declare-fun n_3383 () Int)
(declare-fun m_3382 () Int)
(declare-fun xheight_primed () Int)
(declare-fun n_3367 () Int)
(declare-fun m () Int)
(declare-fun m1_3370 () Int)
(declare-fun n () Int)
(declare-fun n1_3371 () Int)
(declare-fun xright_primed () Int)
(declare-fun m2_3373 () Int)
(declare-fun n2_3374 () Int)
(declare-fun q_3372 () Int)
;Relations declarations
;Axioms assertions
;Antecedent
(assert (<= 0 Anon_3397))
(assert (= n_3393 Anon_3397))
(assert (= v_int_175_1370_primed n_3393))
(assert (<= 0 n_3393))
(assert (or (and (and (< xleft_primed 1) (= m_3392 0)) (= n_3393 0)) (and (and (<= 1 n_3393) (<= 1 m_3392)) (> xleft_primed 0))))
(assert (<= 0 m_3392))
(assert (<= 0 flted_160_3396))
(assert (= m_3392 flted_160_3396))
(assert (<= 0 n_3383))
(assert (<= 0 m_3382))
(assert (= flted_160_3396 (+ 1 m_3382)))
(assert (<= 0 n1_3371))
(assert (<= 0 m1_3370))
(assert (= n_3383 n1_3371))
(assert (= m_3382 m1_3370))
(assert (= xheight_primed n_3367))
(assert (= n_3367 n))
(assert (= m (+ (+ m2_3373 1) m1_3370)))
(assert (<= (+ 0 n2_3374) (+ n1_3371 1)))
(assert (<= n1_3371 (+ 1 n2_3374)))
(assert (exists ((max_3406 Int)) (and (= n (+ 1 max_3406)) (or (and (= max_3406 n1_3371) (>= n1_3371 n2_3374)) (and (= max_3406 n2_3374) (< n1_3371 n2_3374))))))
(assert (= xright_primed q_3372))
(assert (or (and (and (< q_3372 1) (= m2_3373 0)) (= n2_3374 0)) (and (and (<= 1 n2_3374) (<= 1 m2_3373)) (> q_3372 0))))
;Negation of Consequence
(assert (not (or (= m2_3373 0) (or (= n2_3374 0) (< q_3372 1)))))
(check-sat)